100	5
25	1000
10
7
13
19
26
3
5
9
16
16
12
19
23
20
8
19
2
12
17
9
11
18
29
3
6
17
16
16
9
21
27
23
11
14
8
5
8
16
31
9
5
5
7
18
16
1
27
36
30
13
10
9
14
18
2
6
7
18
28
3
13
19
10
9
20
25
25
36
6
5
15
25
9
8
18
13
14
3
23
6
26
16
11
7
41
35
26
9
15
3
1
2
22
27
20
11
12
10
9
17
35	35	0	1000	0	0
41	49	0	974	10	2
35	17	0	972	10	2
55	45	0	967	10	2
55	20	620	860	10	3
15	30	0	969	10	2
25	30	345	585	10	3
20	50	0	968	10	1
10	43	323	563	10	3
55	60	329	569	10	2
30	60	485	725	10	3
20	65	146	386	10	2
50	35	0	975	10	2
30	25	639	879	10	1
15	10	0	957	10	3
30	5	118	358	10	1
10	20	0	960	10	2
5	30	682	922	10	1
20	40	0	974	10	3
15	60	0	957	10	2
45	65	0	958	10	2
45	20	0	971	10	2
45	10	332	572	10	2
55	5	146	386	10	1
65	35	0	960	10	3
65	20	716	956	10	3
45	30	0	978	10	3
35	40	60	300	10	3
41	37	0	983	10	1
64	42	0	960	10	2
40	60	187	427	10	1
31	52	0	972	10	2
35	69	0	956	10	2
53	52	24	264	10	1
65	55	0	953	10	1
63	65	630	870	10	2
2	60	41	281	10	3
20	20	0	968	10	2
5	5	234	474	10	1
60	12	33	273	10	3
40	25	279	519	10	3
42	7	334	574	10	2
24	12	25	265	10	1
23	3	0	955	10	2
11	14	167	407	10	1
6	38	29	269	10	1
2	48	0	954	10	1
8	56	0	955	10	3
13	52	0	962	10	3
6	68	401	641	10	2
47	47	0	973	10	3
49	58	0	963	10	3
27	43	0	978	10	1
37	31	332	572	10	3
57	29	0	967	10	2
63	23	560	800	10	3
53	12	519	759	10	2
32	12	0	966	10	1
36	26	740	980	10	3
21	24	0	972	10	1
17	34	0	971	10	1
12	24	0	964	10	1
24	58	113	353	10	2
27	69	0	955	10	1
15	77	154	394	10	1
62	77	49	289	10	1
49	73	523	763	10	2
67	5	228	468	10	2
56	39	575	815	10	2
37	47	108	348	10	3
37	56	728	968	10	1
57	68	0	950	10	1
47	16	0	967	10	2
44	17	0	969	10	2
46	13	622	862	10	1
49	11	0	962	10	2
49	42	212	452	10	1
53	43	730	970	10	1
61	52	322	562	10	3
57	48	307	547	10	1
56	37	728	968	10	1
55	54	0	962	10	1
15	47	0	966	10	1
14	37	0	968	10	3
11	31	354	594	10	3
16	22	0	966	10	1
4	18	0	954	10	1
28	18	314	554	10	3
26	52	214	454	10	3
26	35	0	981	10	3
31	67	0	957	10	3
15	19	0	964	10	2
22	22	18	258	10	2
18	24	729	969	10	3
26	27	0	977	10	1
25	24	0	975	10	3
22	27	0	974	10	1
25	21	0	972	10	2
19	21	0	968	10	1
20	26	263	503	10	2
18	18	725	965	10	3
31	7	0	1000	5	4
42	23	0	1000	5	4
5	56	0	1000	5	4
55	12	0	1000	5	4
42	59	0	1000	5	4
0	0	0	0	1	
0	1	0	0	0	
0	0	0	0	1	
0	0	0	1	0	
0	1	0	0	0	
0	1	0	0	0	
0	0	0	0	0	
0	0	1	0	0	
0	0	0	0	1	
0	0	0	0	1	
0	0	1	0	0	
0	1	0	0	0	
0	0	0	0	0	
1	0	0	0	0	
0	0	0	0	0	
1	0	0	0	0	
0	0	0	0	0	
0	0	1	0	0	
0	0	1	0	0	
0	0	0	0	1	
0	1	0	0	0	
0	0	0	1	0	
0	0	0	0	0	
0	0	0	1	0	
0	0	0	1	0	
0	1	0	0	0	
0	1	0	0	0	
0	0	0	0	0	
0	0	0	0	1	
0	0	0	0	0	
0	0	0	0	1	
0	0	0	0	1	
0	0	0	0	0	
0	0	0	0	0	
0	0	0	0	1	
0	0	1	0	0	
1	0	0	0	0	
0	0	0	0	0	
0	0	0	1	0	
0	1	0	0	0	
1	0	0	0	0	
0	0	0	0	0	
1	0	0	0	0	
0	0	0	0	0	
0	0	0	0	0	
0	0	0	0	0	
0	0	1	0	0	
0	0	1	0	0	
0	0	1	0	0	
0	0	0	0	1	
0	0	0	0	1	
0	0	0	0	0	
0	1	0	0	0	
0	1	0	0	0	
0	0	0	1	0	
0	0	0	1	0	
0	0	0	0	0	
0	1	0	0	0	
0	0	0	0	0	
0	0	0	0	0	
0	0	0	0	0	
0	0	0	0	1	
0	0	0	0	0	
0	0	0	0	0	
0	0	0	0	0	
0	0	0	0	1	
0	0	0	1	0	
0	1	0	0	0	
0	0	0	0	1	
0	0	0	0	0	
0	0	0	0	0	
0	1	0	0	0	
0	1	0	0	0	
0	0	0	0	0	
0	0	0	1	0	
0	0	0	0	0	
0	0	0	0	0	
0	0	0	0	1	
0	0	0	0	0	
0	0	0	0	0	
0	0	0	0	0	
0	0	0	0	0	
0	0	1	0	0	
0	0	1	0	0	
0	0	0	0	0	
0	0	0	0	0	
1	0	0	0	0	
0	0	0	0	1	
0	1	0	0	0	
0	0	0	0	1	
1	0	0	0	0	
1	0	0	0	0	
1	0	0	0	0	
0	0	0	0	0	
0	1	0	0	0	
0	0	0	0	0	
1	0	0	0	0	
0	0	0	0	0	
1	0	0	0	0	
1	0	0	0	0	
